unknown
(model
; cardinality of BoundSet is 5
(declare-sort BoundSet 0)
; rep: @uc_BoundSet_0
; rep: @uc_BoundSet_1
; rep: @uc_BoundSet_2
; rep: @uc_BoundSet_3
; rep: @uc_BoundSet_4
; cardinality of UnboundSet is 1
(declare-sort UnboundSet 0)
(declare-fun groundTerm_6 () UnboundSet)
(define-fun MadePublicRelationsEffort ((BOUND_VARIABLE_434 BoundSet) (BOUND_VARIABLE_435 BoundSet)) Bool true)
(define-fun IsClaimed ((BOUND_VARIABLE_434 BoundSet) (BOUND_VARIABLE_435 BoundSet)) Bool true)
(define-fun IsWarmestYear ((BOUND_VARIABLE_434 BoundSet) (BOUND_VARIABLE_435 BoundSet)) Bool true)
(define-fun IsOnRecord ((BOUND_VARIABLE_434 BoundSet) (BOUND_VARIABLE_435 BoundSet)) Bool true)
(define-fun IsNotWarmestYearOnRecord ((BOUND_VARIABLE_434 BoundSet) (BOUND_VARIABLE_435 BoundSet)) Bool false)
)
sat
(model
; cardinality of BoundSet is 1
(declare-sort BoundSet 0)
; rep: @uc_BoundSet_0
; cardinality of UnboundSet is 1
(declare-sort UnboundSet 0)
(declare-fun groundTerm_8 () UnboundSet)
(define-fun MadePublicRelationsEffort ((BOUND_VARIABLE_486 BoundSet) (BOUND_VARIABLE_487 BoundSet)) Bool true)
(define-fun IsClaimed ((BOUND_VARIABLE_486 BoundSet) (BOUND_VARIABLE_487 BoundSet)) Bool true)
(define-fun IsWarmestYear ((BOUND_VARIABLE_486 BoundSet) (BOUND_VARIABLE_487 BoundSet)) Bool true)
(define-fun IsOnRecord ((BOUND_VARIABLE_486 BoundSet) (BOUND_VARIABLE_487 BoundSet)) Bool true)
(define-fun IsNotWarmestYearOnRecord ((BOUND_VARIABLE_486 BoundSet) (BOUND_VARIABLE_487 BoundSet)) Bool false)
)
